(set-info :smt-lib-version 2.6)
(set-logic QF_UFLRA)
(set-info :source |
MathSat group

|)
(set-info :category "random")
(set-info :status sat)
(declare-fun x0 () Real)
(declare-fun x1 () Real)
(declare-fun x2 () Real)
(declare-fun x3 () Real)
(declare-fun x4 () Real)
(declare-fun x5 () Real)
(declare-fun x6 () Real)
(declare-fun x7 () Real)
(declare-fun x8 () Real)
(declare-fun x9 () Real)
(declare-fun x10 () Real)
(declare-fun x11 () Real)
(declare-fun x12 () Real)
(declare-fun x13 () Real)
(declare-fun x14 () Real)
(declare-fun x15 () Real)
(declare-fun x16 () Real)
(declare-fun x17 () Real)
(declare-fun x18 () Real)
(declare-fun x19 () Real)
(declare-fun x20 () Real)
(declare-fun x21 () Real)
(declare-fun x22 () Real)
(declare-fun x23 () Real)
(declare-fun x24 () Real)
(declare-fun x25 () Real)
(declare-fun x26 () Real)
(declare-fun x27 () Real)
(declare-fun x28 () Real)
(declare-fun x29 () Real)
(declare-fun x30 () Real)
(declare-fun x31 () Real)
(declare-fun x32 () Real)
(declare-fun x33 () Real)
(declare-fun x34 () Real)
(declare-fun x35 () Real)
(declare-fun x36 () Real)
(declare-fun x37 () Real)
(declare-fun x38 () Real)
(declare-fun x39 () Real)
(declare-fun x40 () Real)
(declare-fun x41 () Real)
(declare-fun x42 () Real)
(declare-fun x43 () Real)
(declare-fun x44 () Real)
(declare-fun x45 () Real)
(declare-fun x46 () Real)
(declare-fun x47 () Real)
(declare-fun x48 () Real)
(declare-fun x49 () Real)
(declare-fun f0_1 (Real) Real)
(declare-fun f0_2 (Real Real) Real)
(declare-fun f0_3 (Real Real Real) Real)
(declare-fun f0_4 (Real Real Real Real) Real)
(declare-fun P0 () Bool)
(declare-fun P1 () Bool)
(declare-fun P2 () Bool)
(declare-fun P3 () Bool)
(declare-fun P4 () Bool)
(declare-fun P5 () Bool)
(declare-fun P6 () Bool)
(declare-fun P7 () Bool)
(declare-fun P8 () Bool)
(declare-fun P9 () Bool)
(declare-fun P10 () Bool)
(declare-fun P11 () Bool)
(declare-fun P12 () Bool)
(declare-fun P13 () Bool)
(declare-fun P14 () Bool)
(declare-fun P15 () Bool)
(declare-fun P16 () Bool)
(declare-fun P17 () Bool)
(declare-fun P18 () Bool)
(declare-fun P19 () Bool)
(declare-fun P20 () Bool)
(declare-fun P21 () Bool)
(declare-fun P22 () Bool)
(declare-fun P23 () Bool)
(declare-fun P24 () Bool)
(declare-fun P25 () Bool)
(declare-fun P26 () Bool)
(declare-fun P27 () Bool)
(declare-fun P28 () Bool)
(declare-fun P29 () Bool)
(declare-fun P30 () Bool)
(declare-fun P31 () Bool)
(declare-fun P32 () Bool)
(declare-fun P33 () Bool)
(declare-fun P34 () Bool)
(declare-fun P35 () Bool)
(declare-fun P36 () Bool)
(declare-fun P37 () Bool)
(declare-fun P38 () Bool)
(declare-fun P39 () Bool)
(declare-fun P40 () Bool)
(declare-fun P41 () Bool)
(declare-fun P42 () Bool)
(declare-fun P43 () Bool)
(declare-fun P44 () Bool)
(declare-fun P45 () Bool)
(declare-fun P46 () Bool)
(declare-fun P47 () Bool)
(declare-fun P48 () Bool)
(declare-fun P49 () Bool)
(assert (let ((?v_126 (* 5 x6)) (?v_99 (* 11 x12)) (?v_189 (<= (- (+ (* 18 x15) (* 19 x40)) (* 17 x6)) 23)) (?v_66 (* 2 x28)) (?v_67 (* 17 x47)) (?v_183 (* 19 x16)) (?v_94 (= (- (- (* 15 x23) (* 11 x25)) (* 4 x39)) 11)) (?v_157 (<= (+ (- (* 27 x7) (* 14 x28)) (* 14 x8)) 14)) (?v_7 (f0_1 x3))) (let ((?v_112 (= x14 ?v_7)) (?v_173 (distinct (f0_2 x33 x7) (f0_2 x38 x41))) (?v_62 (= (f0_2 x3 x36) (f0_2 x39 x27))) (?v_180 (= x47 (f0_2 x46 x41))) (?v_93 (= x32 x23)) (?v_1 (f0_1 x31))) (let ((?v_103 (distinct ?v_1 (f0_2 x44 x47))) (?v_89 (distinct (f0_1 x12) (f0_2 x1 x16))) (?v_25 (distinct (f0_2 x43 x44) (f0_2 x42 x32))) (?v_30 (f0_1 x18))) (let ((?v_204 (distinct (f0_2 x41 x46) ?v_30)) (?v_2 (distinct (f0_2 x42 x2) x11)) (?v_15 (= x7 x22)) (?v_78 (= x15 x1)) (?v_211 (= x36 x34)) (?v_175 (distinct x18 (f0_2 x4 x3))) (?v_31 (distinct (f0_2 x45 x0) (f0_2 x1 x25))) (?v_144 (distinct (f0_1 x34) (f0_1 x24))) (?v_48 (f0_1 x21))) (let ((?v_73 (= ?v_48 (f0_2 x44 x11))) (?v_171 (f0_1 x36))) (let ((?v_186 (= (f0_1 x30) ?v_171)) (?v_185 (= (f0_2 x22 x16) x36)) (?v_113 (distinct (f0_2 x39 x40) x46)) (?v_46 (distinct x3 (f0_2 x11 x28))) (?v_52 (distinct (f0_1 x27) x49)) (?v_51 (f0_1 x25))) (let ((?v_96 (= (f0_2 x44 x44) ?v_51)) (?v_35 (= ?v_30 (f0_1 x7))) (?v_39 (= x22 x1)) (?v_17 (f0_1 x13))) (let ((?v_19 (distinct ?v_17 x12)) (?v_18 (distinct (f0_2 x13 x11) (f0_2 x20 x16))) (?v_68 (distinct ?v_30 x29)) (?v_156 (distinct (f0_2 x26 x49) (f0_2 x10 x28))) (?v_91 (distinct (f0_2 x40 x27) x19)) (?v_41 (distinct x43 ?v_17)) (?v_77 (= x18 (f0_1 x47))) (?v_14 (= (f0_2 x5 x37) x5)) (?v_79 (= (f0_2 x24 x17) x6)) (?v_240 (= x12 x17)) (?v_26 (= (f0_1 x48) x11)) (?v_54 (= (f0_2 x15 x47) (f0_2 x5 x8))) (?v_23 (distinct (f0_1 x28) ?v_1)) (?v_4 (distinct ?v_7 (f0_1 x6))) (?v_140 (= x16 ?v_51)) (?v_55 (= (f0_2 x8 x1) (f0_2 x35 x2))) (?v_131 (distinct x27 x28)) (?v_61 (distinct x42 (f0_1 x9))) (?v_74 (= x43 (f0_1 x43))) (?v_12 (distinct (f0_1 x41) ?v_7)) (?v_11 (distinct x6 (f0_2 x9 x31))) (?v_216 (distinct x0 x30)) (?v_138 (distinct ?v_171 ?v_1)) (?v_59 (= x32 ?v_48)) (?v_122 (= (f0_1 x44) x7))) (let ((?v_205 (not ?v_74)) (?v_128 (not P15)) (?v_90 (not P11)) (?v_134 (not ?v_4)) (?v_151 (not ?v_26)) (?v_45 (not P37)) (?v_86 (not P38)) (?v_8 (not ?v_138)) (?v_56 (not ?v_185)) (?v_137 (not P24)) (?v_209 (not P20)) (?v_228 (not P28)) (?v_5 (not ?v_173)) (?v_57 (not ?v_131)) (?v_38 (not ?v_15)) (?v_6 (not ?v_79)) (?v_187 (not P25)) (?v_28 (not ?v_211)) (?v_149 (not P43)) (?v_60 (not ?v_189)) (?v_49 (not ?v_12)) (?v_37 (not P22)) (?v_27 (not ?v_156)) (?v_133 (not P34)) (?v_124 (not P21)) (?v_21 (not P46)) (?v_104 (not P2)) (?v_215 (not P18)) (?v_236 (not P40)) (?v_95 (not ?v_62)) (?v_33 (not ?v_41)) (?v_24 (not ?v_89)) (?v_92 (not ?v_91)) (?v_160 (not P10)) (?v_155 (not ?v_18)) (?v_146 (not P6)) (?v_245 (not P26)) (?v_43 (not P47)) (?v_170 (not ?v_68)) (?v_105 (not ?v_96)) (?v_111 (not ?v_31)) (?v_179 (not P48)) (?v_196 (not ?v_35)) (?v_87 (not P7)) (?v_72 (not ?v_2)) (?v_71 (not ?v_39)) (?v_58 (not P27)) (?v_97 (not ?v_93)) (?v_217 (not P49)) (?v_188 (not P9)) (?v_121 (not ?v_46)) (?v_63 (not ?v_59)) (?v_88 (not ?v_52)) (?v_129 (not P41)) (?v_80 (not P4)) (?v_219 (not ?v_55)) (?v_110 (not P3)) (?v_108 (not ?v_19)) (?v_194 (not ?v_73)) (?v_235 (not P19)) (?v_154 (not ?v_113)) (?v_125 (not ?v_122)) (?v_232 (not ?v_144)) (?v_117 (not P16)) (?v_127 (not ?v_103)) (?v_221 (not P1)) (?v_251 (not ?v_78)) (?v_203 (not ?v_216)) (?v_116 (not P23)) (?v_135 (not P29)) (?v_107 (not P44)) (?v_226 (not P33)) (?v_254 (not ?v_54)) (?v_247 (not ?v_240)) (?v_145 (not P35)) (?v_177 (not ?v_77)) (?v_162 (not ?v_14)) (?v_181 (not P13)) (?v_152 (not ?v_140)) (?v_206 (not ?v_23)) (?v_153 (not P17)) (?v_197 (not P8)) (?v_208 (not P31)) (?v_167 (not P39)) (?v_161 (not P32)) (?v_233 (not ?v_61)) (?v_192 (not ?v_157)) (?v_163 (not ?v_25)) (?v_200 (not ?v_11)) (?v_241 (not P14)) (?v_224 (not ?v_175)) (?v_195 (not P30)) (?v_202 (not ?v_180)) (?v_193 (not P36)) (?v_239 (not P42)) (?v_243 (not (<= (- (- (* 9 x31) (* 26 x41)) ?v_183) 11))) (?v_237 (not ?v_186)) (?v_207 (not P12)) (?v_212 (not P45)) (?v_234 (not P0)) (?v_230 (not ?v_204)) (?v_250 (not ?v_112)) (?v_252 (not P5)) (?v_168 (<= (+ (* 2 x5) (* 27 x9) (* 24 x14)) 7))) (let ((?v_159 (not ?v_168)) (?v_190 (<= (+ (* 14 x15) (* 21 x45) (* 9 x5)) 3)) (?v_143 (< (+ (* 23 x29) (* 8 x45) x1) 15)) (?v_22 (< (- (- 0 (* 12 x1)) (* 18 x38)) 2))) (let ((?v_9 (not ?v_22)) (?v_118 (< (- (- ?v_99 (* 4 x14)) 0) 22)) (?v_123 (<= (+ (* 23 x6) (* 16 x31) (* 18 x49)) 18)) (?v_150 (<= (+ (- (* 11 x14) 0) (* 23 x24)) 29)) (?v_256 (< (+ (* 19 x46) (* 12 x33) (* 23 x44)) 16))) (let ((?v_75 (not ?v_256)) (?v_114 (< (+ (* 3 x34) (* 16 x1) x43) 8)) (?v_100 (< (+ (* 22 x35) (* 26 x6) (* 21 x34)) 11)) (?v_76 (< (+ (* 12 x8) ?v_66 ?v_67) 9))) (let ((?v_148 (or ?v_76 ?v_25)) (?v_109 (distinct (+ (- 0 (* 8 x31)) (* 26 x27)) 7)) (?v_244 (< (+ ?v_183 (* 22 x15) (* 14 x3)) 6))) (let ((?v_227 (not ?v_244)) (?v_214 (not ?v_100)) (?v_158 (not ?v_76)) (?v_220 (not ?v_109)) (?v_147 (< (+ (- 0 (* 27 x36)) (* 2 x33)) 19)) (?v_184 (not ?v_114)) (?v_130 (not ?v_118)) (?v_210 (not ?v_143)) (?v_242 (not ?v_150)) (?v_223 (not ?v_190)) (?v_115 (distinct (- (- 0 (* 23 x39)) (* 5 x27)) (- 14))) (?v_0 (< (+ (- 0 (* 20 x9)) (* 11 x11)) (- 6)))) (let ((?v_3 (not ?v_0)) (?v_42 (< (- (- (* (- 26) x27) 0) (* 23 x36)) 12)) (?v_16 (< (- (* 14 x11) (* 20 x46)) (- 7))) (?v_136 (= (- (- (* (- 21) x46) (* 5 x11)) (* 7 x35)) (- 27)))) (let ((?v_222 (not ?v_136)) (?v_44 (< (+ (* (- 19) x33) (* 13 x5) (* 24 x15)) (- 3))) (?v_176 (<= (+ (* 23 x23) (* 25 x4) (* 20 x37)) (- 20)))) (let ((?v_10 (not ?v_176)) (?v_83 (<= (+ (- (* (- 3) x8) (* 19 x10)) (* 15 x47)) (- 23)))) (let ((?v_64 (not ?v_83)) (?v_53 (<= (+ (* (- 15) x0) (* 3 x45) ?v_66) 29))) (let ((?v_106 (not ?v_53)) (?v_198 (<= (- (+ (* (- 17) x35) x33) ?v_67) (- 16)))) (let ((?v_172 (not ?v_198)) (?v_13 (<= (+ (* (- 25) x10) (* 4 x27) (* 13 x46)) (- 23))) (?v_40 (<= (+ (- 0 (* 9 x3)) (* 23 x30)) (- 14)))) (let ((?v_85 (not ?v_40)) (?v_34 (< (- (- (* 25 x9) (* 6 x17)) (* 4 x23)) (- 25)))) (let ((?v_36 (not ?v_34)) (?v_50 (<= (+ (* (- 6) x42) (* 17 x19) (* 26 x14)) 9)) (?v_102 (not ?v_13)) (?v_32 (< (- (* 7 x48) (* 20 x16)) (- 28))) (?v_20 (< (- (+ (* (- 10) x33) ?v_126) (* 12 x9)) (- 15))) (?v_29 (<= (+ (- (* (- 6) x29) (* 8 x20)) (* 3 x9)) (- 10))) (?v_225 (<= (- (+ (* (- 17) x45) (* 10 x41)) (* 27 x16)) 12))) (let ((?v_82 (not ?v_225)) (?v_47 (< (+ (* 13 x26) (* 2 x19) (* 6 x1)) (- 9)))) (let ((?v_65 (not ?v_47)) (?v_70 (<= (- (+ (* 25 x24) (* 11 x46)) (* 12 x6)) (- 6))) (?v_178 (not ?v_32)) (?v_141 (<= (- (+ (* (- 25) x15) (* 22 x38)) (* 20 x47)) (- 13))) (?v_69 (< (- (+ (* (- 24) x9) (* 2 x38)) (* 15 x42)) 24)) (?v_253 (not ?v_44)) (?v_98 (not ?v_50)) (?v_182 (distinct (+ (- (* (- 5) x28) (* 18 x24)) (* 27 x28)) (- 19)))) (let ((?v_101 (not ?v_182)) (?v_139 (< (+ (* (- 15) x41) (* 8 x35) (* 19 x38)) 0))) (let ((?v_81 (not ?v_139)) (?v_120 (not ?v_69)) (?v_246 (not ?v_70)) (?v_84 (< (+ (- (* 23 x46) (* 9 x26)) (* 24 x10)) (- 7))) (?v_132 (distinct (- (- (* 17 x29) (* 14 x20)) ?v_99) (- 24))) (?v_142 (not ?v_42)) (?v_119 (not ?v_16)) (?v_169 (distinct (- ?v_126 (* 2 x40)) (- 19))) (?v_166 (not ?v_115)) (?v_201 (< (+ (- (* (- 13) x39) (* 20 x2)) (* 22 x1)) (- 27))) (?v_238 (not ?v_29)) (?v_165 (<= (+ (- (* (- 17) x24) x23) (* 24 x9)) (- 18))) (?v_191 (< (+ (- (* (- 15) x23) (* 13 x15)) (* 10 x12)) 17))) (let ((?v_174 (not ?v_191)) (?v_164 (not ?v_132)) (?v_249 (<= (- (- (* (- 5) x26) (* 5 x35)) (* 16 x24)) 21))) (let ((?v_199 (not ?v_249)) (?v_213 (not ?v_141)) (?v_218 (not ?v_165)) (?v_229 (not ?v_169)) (?v_248 (<= (+ (* (- 3) x17) (* 25 x22) (* 8 x32)) (- 4))) (?v_231 (not ?v_20)) (?v_255 (not ?v_84))) (let ((?v_257 (not ?v_248)) (?v_258 (not ?v_201))) (and (and (and (and (and (and (and (and (and (and (and (and (and (and (and (and (and (and (and (and (and (and (and (and (and (and (and (and (and (and (and (and (and (and (and (and (and (and (and (and (and (and (and (and (and (and (and (and (and (and (and (and (and (and (and (and (and (and (and (and (and (and (and (and (and (and (and (and (and (and (and (and (and (and (and (and (and (and (and (and (and (and (and (and (and (and (and (and (and (and (and (and (and (and (and (and (and (and (and (and (and (and (and (and (and (and (and (and (and (and (and (and (and (and (and (and (and (and (and (and (and (and (and (and (and (and (and (and (and (and (and (and (and (and (and (and (and (and (and (and (and (and (and (and (and (and (and (and (and (and (and (and (and (and (and (and (and (and (and (and (and (and (and (and (and (and (and (and (and (and (and (and (and (and (and (and (and (and (and (and (and (and (and (and (and (and (and (and (and (and (and (and (and (and (and (and (and (and (and (and (and (and (and (and (and (and (and (and (and (and (and (and (and (and (and (and (and (and (and (and (and (and (and (and (and (and (and (and (and (and (and (and (and (and (and (and (and (and (and (and (and (and (and (and (and (and (and (and (and (and (and (and (and (and (and (and (and (and (and (and (and (and (and (and (and (and (and (and (and (and (and (and (and (and (and (and (and (and (and (and (and (and (and (and (and (and (and (and (and (and (and (and (and (and (and (and (and (and (and (and (and (and (and (and (and (and (and (and (and (and (and (and (and (and (and (and (and (and (and (and (and (and (and (and (and (and (and (and (and (and (and (and (and (and (and (and (and (and (and (and (and (and (and (and (and (and (and (and (and (and (and (and (and (and (and (and (and (and (and (and (and (and (and (and (and (and (and (and (and (and (and (and (and (and (and (and (and (and (and (and (and (and (and (and (and (and (and (and (and (and (and (and (and (and (and (and (and (and (and (and (and (and (and (and (and (and (and (and (and (and (and (and (and (and (and (and (and (and (and (and (and (and (and (and (and (and (and (and (and (and (and (and (and (and (and (and (and (and (and (and (and (and (and (and (and (and (and (and (and (and (and (and (and (and (and (and (and (and (and (and (and (and (and (and (and (and (and (and (and (and (and (and (and (and (and (and (and (and (and (and (and (and (and (and (and (and (and (and (and (and (and (and (and (and (and (and (and (and (and (and (and (and (and (and (and (and (and (and (and (and (and (and (and (and (and (and (and (and (and (and (and (and (and (and (and (and (and (and (and (and (and (and (and (and (and (and (and (and (and (and (and (and (and (and (and (and (and (and (and (and (and (and (and (and (and (and (and (and (and (and (and (and (and (and (and (and (and (and (and (and (and (and (and (and (and (and (and (and (and (and (and (and (and (and (and (and (and (and (and (and (and (and (and (and (and (and (and (and (and (or (or ?v_205 ?v_115) ?v_3) (or (or ?v_14 ?v_128) ?v_23)) (or (or ?v_90 P31) ?v_25)) (or (or P38 ?v_42) ?v_2)) (or (or ?v_134 ?v_151) P19)) (or (or ?v_159 ?v_45) ?v_52)) (or (or ?v_190 ?v_16) ?v_222)) (or (or ?v_0 ?v_39) ?v_86)) (or (or ?v_8 P25) ?v_2)) (or (or ?v_56 P9) ?v_44)) (or (or ?v_137 ?v_10) ?v_3)) (or (or ?v_209 ?v_64) ?v_228)) (or (or ?v_5 ?v_57) ?v_106)) (or (or ?v_38 ?v_172) ?v_13)) (or (or ?v_6 ?v_187) P47)) (or (or ?v_85 ?v_28) P20)) (or (or ?v_143 ?v_149) ?v_18)) (or (or ?v_4 ?v_5) ?v_35)) (or (or ?v_6 ?v_60) ?v_9)) (or (or ?v_5 ?v_49) P9)) (or (or ?v_5 P21) ?v_8)) (or (or ?v_9 P3) ?v_10)) (or (or ?v_37 ?v_77) ?v_11)) (or (or P19 ?v_27) ?v_36)) (or (or ?v_50 ?v_11) P44)) (or (or ?v_112 ?v_133) ?v_12)) (or (or P16 ?v_19) ?v_102)) (or (or ?v_94 P33) ?v_118)) (or (or P5 ?v_14) ?v_15)) (or (or ?v_124 ?v_21) P35)) (or (or ?v_104 ?v_215) ?v_236)) (or (or ?v_95 ?v_16) ?v_32)) (or (or ?v_20 ?v_33) ?v_18)) (or (or ?v_123 ?v_4) ?v_19)) (or (or P9 ?v_20) ?v_24)) (or (or ?v_92 ?v_31) ?v_21)) (or (or P34 ?v_22) P1)) (or (or ?v_160 ?v_4) ?v_23)) (or (or ?v_155 ?v_157) ?v_146)) (or (or ?v_29 ?v_24) ?v_25)) (or (or ?v_82 ?v_16) ?v_150)) (or (or P36 ?v_245) ?v_26)) (or (or ?v_26 ?v_27) ?v_43)) (or (or ?v_65 P31) ?v_28)) (or (or ?v_29 ?v_46) ?v_70)) (or (or ?v_170 ?v_105) ?v_111)) (or (or ?v_28 ?v_78) ?v_178)) (or (or ?v_33 ?v_34) ?v_15)) (or (or ?v_61 ?v_179) ?v_141)) (or (or ?v_196 ?v_87) P23)) (or (or ?v_36 ?v_37) ?v_38)) (or (or ?v_39 P5) ?v_54)) (or (or ?v_69 ?v_75) ?v_72)) (or (or ?v_55 ?v_40) ?v_71)) (or (or ?v_58 ?v_41) ?v_97)) (or (or ?v_42 ?v_43) ?v_2)) (or (or ?v_253 ?v_217) ?v_188)) (or (or P8 P34) ?v_73)) (or (or ?v_9 ?v_45) ?v_121)) (or (or ?v_47 ?v_63) ?v_49)) (or (or ?v_98 ?v_140) ?v_9)) (or (or ?v_88 ?v_114) ?v_53)) (or (or ?v_129 P19) ?v_21)) (or (or ?v_13 P1) ?v_100)) (or (or ?v_54 P47) ?v_80)) (or (or ?v_101 ?v_219) ?v_56)) (or (or ?v_57 ?v_58) P32)) (or (or ?v_59 ?v_60) ?v_61)) (or (or P19 ?v_2) ?v_110)) (or (or ?v_15 ?v_62) ?v_81)) (or (or ?v_15 ?v_63) P12)) (or (or ?v_64 ?v_57) ?v_65)) (or ?v_148 ?v_109)) (or (or P2 ?v_108) ?v_68)) (or (or ?v_120 P6) ?v_70)) (or (or P48 ?v_71) P24)) (or (or ?v_72 ?v_27) ?v_194)) (or (or ?v_74 ?v_75) ?v_76)) (or (or P6 ?v_235) ?v_77)) (or (or ?v_41 ?v_78) ?v_227)) (or (or P31 ?v_246) ?v_79)) (or (or ?v_36 ?v_35) ?v_80)) (or (or ?v_81 ?v_154) ?v_84)) (or (or ?v_82 P44) ?v_52)) (or (or ?v_125 ?v_83) ?v_84)) (or (or ?v_21 ?v_85) ?v_4)) (or (or ?v_86 ?v_31) P47)) (or (or ?v_87 ?v_88) ?v_89)) (or (or ?v_232 ?v_90) ?v_91)) (or (or P30 ?v_117) ?v_80)) (or (or ?v_127 ?v_92) ?v_93)) (or (or ?v_221 ?v_89) ?v_94)) (or (or ?v_95 P18) ?v_20)) (or (or ?v_96 P32) ?v_97)) (or (or ?v_251 ?v_98) P5)) (or (or ?v_203 ?v_132) ?v_142)) (or (or P10 ?v_214) P27)) (or (or ?v_88 ?v_116) ?v_158)) (or (or P35 ?v_43) ?v_96)) (or (or ?v_101 ?v_41) P13)) (or (or ?v_135 ?v_107) ?v_102)) (or (or ?v_24 ?v_226) ?v_103)) (or (or ?v_20 ?v_104) ?v_77)) (or (or P3 ?v_27) ?v_4)) (or (or ?v_2 ?v_69) ?v_105)) (or (or ?v_106 ?v_107) ?v_108)) (or (or ?v_220 ?v_110) ?v_93)) (or (or ?v_111 ?v_254) ?v_57)) (or (or P24 ?v_147) ?v_65)) (or (or ?v_14 ?v_112) ?v_247)) (or (or ?v_113 ?v_184) ?v_15)) (or (or ?v_53 ?v_115) ?v_59)) (or (or ?v_25 ?v_119) ?v_116)) (or (or ?v_145 ?v_90) ?v_111)) (or (or ?v_177 ?v_117) P36)) (or (or P28 ?v_130) ?v_119)) (or (or ?v_162 ?v_181) ?v_120)) (or (or ?v_121 ?v_63) P17)) (or (or ?v_122 ?v_70) P27)) (or (or ?v_123 P36) ?v_124)) (or (or ?v_125 P27) ?v_169)) (or (or ?v_166 ?v_127) ?v_128)) (or (or ?v_53 ?v_100) ?v_4)) (or (or ?v_129 ?v_36) ?v_14)) (or (or ?v_130 P40) P9)) (or (or ?v_21 ?v_130) P33)) (or (or ?v_112 ?v_131) ?v_201)) (or (or P9 ?v_238) ?v_19)) (or (or ?v_132 P24) ?v_53)) (or (or ?v_128 ?v_133) ?v_134)) (or (or ?v_102 ?v_135) P49)) (or (or ?v_136 ?v_82) ?v_137)) (or (or ?v_10 ?v_138) ?v_165)) (or (or ?v_39 ?v_139) ?v_152)) (or (or ?v_206 ?v_92) P14)) (or (or ?v_153 ?v_197) ?v_141)) (or (or ?v_108 ?v_138) ?v_76)) (or (or ?v_142 ?v_26) ?v_174)) (or (or ?v_143 ?v_124) ?v_144)) (or (or ?v_164 ?v_74) ?v_208)) (or (or ?v_210 ?v_37) ?v_167)) (or (or ?v_3 P42) P11)) (or (or ?v_145 ?v_146) (not ?v_147))) (or ?v_148 P6)) (or (or ?v_149 ?v_242) ?v_32)) (or (or ?v_60 ?v_12) ?v_161)) (or (or P36 ?v_150) ?v_133)) (or (or ?v_61 ?v_151) ?v_152)) (or (or ?v_45 ?v_43) ?v_153)) (or (or ?v_90 ?v_45) P41)) (or (or P35 P21) ?v_11)) (or (or ?v_104 P41) P18)) (or (or ?v_105 ?v_154) ?v_54)) (or (or ?v_155 ?v_37) ?v_38)) (or (or P28 ?v_101) ?v_110)) (or (or P32 ?v_156) ?v_233)) (or (or ?v_139 ?v_192) ?v_104)) (or (or ?v_158 ?v_163) ?v_106)) (or (or ?v_124 ?v_31) ?v_157)) (or (or ?v_159 ?v_160) ?v_161)) (or (or ?v_159 ?v_129) ?v_81)) (or (or ?v_180 ?v_162) ?v_163)) (or (or ?v_60 ?v_121) P32)) (or (or ?v_2 ?v_93) ?v_4)) (or (or ?v_11 ?v_164) ?v_23)) (or (or P19 P21) ?v_39)) (or (or ?v_200 ?v_4) ?v_165)) (or (or ?v_155 P41) ?v_164)) (or (or ?v_241 ?v_166) ?v_167)) (or (or ?v_115 ?v_168) ?v_85)) (or (or P22 ?v_157) P23)) (or (or ?v_224 ?v_128) ?v_169)) (or (or ?v_195 ?v_37) ?v_204)) (or (or ?v_86 ?v_125) ?v_78)) (or (or ?v_170 ?v_71) P33)) (or (or ?v_186 ?v_172) ?v_162)) (or (or P31 ?v_133) ?v_173)) (or (or ?v_174 ?v_175) ?v_31)) (or (or ?v_38 ?v_176) ?v_199)) (or (or ?v_177 ?v_151) ?v_178)) (or (or ?v_179 ?v_16) ?v_43)) (or (or ?v_202 ?v_95) ?v_193)) (or (or ?v_239 ?v_213) ?v_181)) (or (or ?v_22 ?v_182) ?v_170)) (or (or P28 P46) P10)) (or (or ?v_165 ?v_131) ?v_175)) (or (or ?v_20 ?v_243) ?v_218)) (or (or P4 ?v_184) ?v_5)) (or (or ?v_134 ?v_185) ?v_181)) (or (or ?v_146 ?v_237) ?v_150)) (or (or ?v_163 ?v_137) ?v_187)) (or (or ?v_188 ?v_207) ?v_15)) (or (or ?v_25 ?v_189) ?v_160)) (or (or ?v_73 P18) ?v_158)) (or (or P21 P16) ?v_22)) (or (or ?v_69 ?v_52) ?v_127)) (or (or P31 P15) ?v_85)) (or (or ?v_190 P2) ?v_165)) (or (or P41 P30) ?v_39)) (or (or ?v_191 ?v_192) ?v_33)) (or (or P11 ?v_193) ?v_109)) (or (or ?v_188 ?v_194) ?v_125)) (or (or ?v_195 ?v_127) ?v_196)) (or (or ?v_141 ?v_18) P44)) (or (or P39 ?v_192) ?v_110)) (or (or ?v_88 ?v_212) ?v_194)) (or (or ?v_115 ?v_197) ?v_131)) (or (or ?v_198 ?v_189) P13)) (or (or ?v_199 ?v_200) P31)) (or (or ?v_176 ?v_170) ?v_201)) (or (or ?v_176 ?v_202) ?v_223)) (or (or ?v_157 ?v_49) ?v_47)) (or (or ?v_11 P15) P26)) (or (or ?v_115 P17) ?v_33)) (or (or P34 ?v_82) P22)) (or (or ?v_133 ?v_188) ?v_164)) (or (or ?v_36 ?v_203) ?v_12)) (or (or ?v_204 ?v_70) P27)) (or (or ?v_39 ?v_73) ?v_153)) (or (or ?v_205 ?v_55) ?v_206)) (or (or ?v_98 ?v_25) ?v_195)) (or (or P8 ?v_186) ?v_55)) (or (or ?v_140 ?v_23) ?v_47)) (or (or ?v_189 ?v_207) ?v_200)) (or (or ?v_116 ?v_37) ?v_206)) (or (or ?v_103 ?v_208) ?v_92)) (or (or ?v_35 ?v_22) ?v_200)) (or (or ?v_209 ?v_210) P35)) (or (or ?v_59 ?v_98) ?v_119)) (or (or ?v_211 ?v_74) ?v_212)) (or (or ?v_25 ?v_167) ?v_41)) (or (or ?v_152 ?v_154) P7)) (or (or P45 ?v_192) ?v_213)) (or (or ?v_166 ?v_203) P46)) (or (or ?v_210 ?v_214) ?v_55)) (or (or ?v_129 ?v_167) ?v_177)) (or (or ?v_215 ?v_61) ?v_136)) (or (or P44 ?v_186) ?v_83)) (or (or ?v_154 P39) ?v_29)) (or (or ?v_16 P27) ?v_168)) (or (or ?v_82 ?v_50) ?v_216)) (or (or ?v_37 ?v_116) ?v_155)) (or (or ?v_234 ?v_113) ?v_27)) (or (or ?v_140 ?v_42) ?v_187)) (or (or ?v_149 ?v_174) ?v_98)) (or (or ?v_98 ?v_180) ?v_105)) (or (or ?v_206 ?v_33) ?v_172)) (or (or ?v_176 ?v_217) ?v_12)) (or (or ?v_70 ?v_131) ?v_133)) (or (or ?v_54 ?v_199) P3)) (or (or ?v_163 ?v_105) ?v_156)) (or (or ?v_68 ?v_104) ?v_12)) (or (or ?v_105 ?v_91) ?v_46)) (or (or P25 P32) ?v_167)) (or (or P44 ?v_10) ?v_41)) (or (or P23 ?v_34) ?v_122)) (or (or P21 ?v_157) ?v_22)) (or (or ?v_25 ?v_96) ?v_218)) (or (or ?v_173 ?v_50) ?v_219)) (or (or ?v_220 ?v_149) ?v_25)) (or (or ?v_13 ?v_87) ?v_112)) (or (or ?v_104 ?v_102) P24)) (or (or ?v_221 ?v_157) P0)) (or (or P5 ?v_129) ?v_45)) (or (or ?v_87 ?v_139) ?v_222)) (or (or ?v_230 ?v_0) ?v_192)) (or (or ?v_40 ?v_31) P26)) (or (or ?v_37 ?v_180) P37)) (or (or P22 P30) ?v_61)) (or (or ?v_167 P25) ?v_65)) (or (or ?v_133 ?v_184) ?v_29)) (or (or P20 ?v_71) ?v_154)) (or (or P44 ?v_18) ?v_14)) (or (or ?v_9 ?v_53) ?v_80)) (or (or ?v_141 ?v_196) ?v_106)) (or (or P6 P12) ?v_6)) (or (or P43 ?v_223) ?v_34)) (or (or ?v_69 ?v_211) ?v_52)) (or (or ?v_145 ?v_202) ?v_72)) (or (or ?v_127 ?v_199) P37)) (or (or ?v_224 P43) ?v_229)) (or (or ?v_211 ?v_86) ?v_152)) (or (or ?v_91 ?v_248) ?v_147)) (or (or P45 P18) ?v_207)) (or (or ?v_173 ?v_104) ?v_80)) (or (or ?v_217 ?v_156) ?v_90)) (or (or ?v_28 ?v_207) ?v_50)) (or (or ?v_29 ?v_160) ?v_214)) (or (or ?v_192 ?v_133) ?v_173)) (or (or ?v_114 ?v_217) ?v_231)) (or (or P0 P32) ?v_225)) (or (or ?v_226 ?v_227) ?v_228)) (or (or P39 ?v_255) ?v_60)) (or (or ?v_203 ?v_157) ?v_65)) (or (or ?v_90 ?v_137) ?v_86)) (or (or ?v_202 P35) ?v_3)) (or (or ?v_229 ?v_137) ?v_194)) (or (or ?v_106 ?v_84) ?v_21)) (or (or ?v_37 ?v_92) ?v_110)) (or (or ?v_39 ?v_55) ?v_134)) (or (or ?v_187 ?v_118) ?v_226)) (or (or ?v_127 ?v_142) ?v_117)) (or (or ?v_198 ?v_98) ?v_212)) (or (or ?v_229 ?v_77) ?v_153)) (or (or ?v_230 ?v_85) ?v_29)) (or (or ?v_231 ?v_13) ?v_178)) (or (or ?v_196 ?v_109) ?v_173)) (or (or ?v_175 ?v_25) P4)) (or (or P16 ?v_154) P11)) (or (or ?v_121 ?v_179) P5)) (or (or ?v_118 ?v_196) P29)) (or (or ?v_157 ?v_158) ?v_32)) (or (or ?v_225 ?v_96) ?v_232)) (or (or ?v_199 ?v_142) ?v_31)) (or (or ?v_109 ?v_16) ?v_26)) (or (or ?v_139 ?v_128) ?v_221)) (or (or P38 ?v_128) ?v_121)) (or (or ?v_86 ?v_214) ?v_102)) (or (or P41 P20) P29)) (or (or ?v_161 ?v_196) ?v_169)) (or (or ?v_82 ?v_125) ?v_98)) (or (or ?v_223 ?v_50) ?v_149)) (or (or ?v_157 ?v_6) ?v_199)) (or (or ?v_98 ?v_104) ?v_161)) (or (or ?v_47 ?v_76) ?v_154)) (or (or ?v_36 ?v_45) ?v_222)) (or (or P38 ?v_117) ?v_143)) (or (or ?v_209 ?v_207) ?v_83)) (or (or P26 P26) ?v_50)) (or (or P2 ?v_138) ?v_228)) (or (or ?v_189 P6) ?v_113)) (or (or ?v_230 ?v_73) ?v_233)) (or (or P26 ?v_106) ?v_198)) (or (or ?v_46 ?v_70) ?v_15)) (or (or ?v_234 ?v_149) ?v_9)) (or (or ?v_60 ?v_31) ?v_91)) (or (or ?v_31 ?v_220) ?v_25)) (or (or ?v_43 ?v_6) ?v_235)) (or (or ?v_225 ?v_218) P38)) (or (or ?v_131 ?v_236) ?v_120)) (or (or ?v_88 ?v_3) ?v_151)) (or (or ?v_176 ?v_114) ?v_232)) (or (or ?v_185 ?v_119) ?v_109)) (or (or ?v_117 ?v_211) ?v_167)) (or (or ?v_89 ?v_151) ?v_163)) (or (or ?v_29 ?v_13) ?v_226)) (or (or ?v_42 ?v_103) ?v_229)) (or (or ?v_44 ?v_111) ?v_98)) (or (or ?v_18 ?v_50) P11)) (or (or P3 ?v_111) ?v_138)) (or (or ?v_237 ?v_37) ?v_227)) (or (or ?v_237 ?v_108) ?v_190)) (or (or ?v_8 ?v_238) ?v_151)) (or (or ?v_197 ?v_180) ?v_175)) (or (or P8 ?v_139) ?v_3)) (or (or ?v_82 ?v_142) ?v_34)) (or (or ?v_55 ?v_2) ?v_132)) (or (or ?v_201 ?v_34) P17)) (or (or ?v_239 ?v_227) ?v_41)) (or (or P31 ?v_43) ?v_142)) (or (or ?v_169 ?v_172) ?v_231)) (or (or ?v_47 ?v_81) ?v_250)) (or (or P39 ?v_240) ?v_15)) (or (or ?v_45 ?v_74) ?v_180)) (or (or P15 P19) ?v_161)) (or (or ?v_52 ?v_86) ?v_241)) (or (or ?v_34 ?v_118) ?v_79)) (or (or ?v_94 ?v_165) ?v_206)) (or (or P27 ?v_241) ?v_198)) (or (or ?v_242 ?v_79) ?v_81)) (or (or ?v_84 ?v_201) ?v_85)) (or (or P15 ?v_236) ?v_29)) (or (or ?v_40 ?v_122) ?v_233)) (or (or ?v_239 ?v_140) ?v_157)) (or (or ?v_121 ?v_112) P38)) (or (or ?v_37 P19) ?v_180)) (or (or ?v_5 ?v_40) ?v_65)) (or (or P48 P46) ?v_142)) (or (or ?v_88 ?v_243) ?v_212)) (or (or P12 ?v_142) ?v_113)) (or (or ?v_217 ?v_42) P2)) (or (or ?v_237 ?v_125) P17)) (or (or ?v_34 ?v_44) ?v_160)) (or (or P17 ?v_60) ?v_142)) (or (or ?v_192 P33) ?v_139)) (or (or ?v_113 ?v_4) ?v_68)) (or (or ?v_4 ?v_203) P5)) (or (or ?v_229 ?v_230) P4)) (or (or ?v_207 ?v_75) ?v_28)) (or (or ?v_244 ?v_54) ?v_153)) (or (or ?v_14 ?v_123) ?v_151)) (or (or ?v_224 ?v_242) ?v_60)) (or (or ?v_138 ?v_245) ?v_5)) (or (or ?v_26 ?v_105) ?v_16)) (or (or ?v_28 ?v_230) ?v_112)) (or (or ?v_246 P46) P4)) (or (or P36 P9) ?v_118)) (or (or ?v_236 ?v_31) ?v_198)) (or (or ?v_200 ?v_75) ?v_13)) (or (or ?v_229 ?v_40) ?v_31)) (or (or ?v_47 ?v_89) ?v_22)) (or (or ?v_57 ?v_204) ?v_223)) (or (or ?v_166 ?v_180) ?v_119)) (or (or ?v_115 ?v_29) ?v_157)) (or (or P4 P44) P13)) (or (or ?v_88 ?v_44) ?v_243)) (or (or ?v_34 ?v_158) ?v_121)) (or (or ?v_225 ?v_247) ?v_212)) (or (or ?v_209 ?v_15) ?v_26)) (or (or ?v_136 ?v_143) ?v_5)) (or (or ?v_23 ?v_231) ?v_204)) (or (or ?v_132 ?v_154) ?v_238)) (or (or P5 P12) ?v_75)) (or (or ?v_165 P38) ?v_61)) (or (or ?v_142 ?v_84) ?v_3)) (or (or ?v_5 ?v_73) ?v_81)) (or (or ?v_36 ?v_167) ?v_248)) (or (or ?v_142 ?v_124) P39)) (or (or P12 P16) ?v_125)) (or (or P22 ?v_133) ?v_249)) (or (or ?v_151 ?v_184) ?v_68)) (or (or P27 ?v_252) ?v_214)) (or (or ?v_145 ?v_167) P25)) (or (or P17 ?v_145) ?v_211)) (or (or ?v_225 ?v_90) ?v_195)) (or (or ?v_88 ?v_36) ?v_187)) (or (or ?v_229 ?v_32) ?v_89)) (or (or ?v_246 ?v_145) ?v_152)) (or (or ?v_209 ?v_224) ?v_29)) (or (or ?v_25 ?v_248) ?v_112)) (or (or P17 ?v_74) ?v_250)) (or (or P15 ?v_61) P2)) (or (or ?v_52 P12) ?v_161)) (or (or ?v_95 ?v_76) ?v_251)) (or (or P23 ?v_252) P29)) (or (or P16 ?v_240) P11)) (or (or P14 ?v_34) ?v_94)) (or (or ?v_27 ?v_156) ?v_164)) (or (or ?v_133 P40) ?v_9)) (or (or ?v_71 ?v_172) ?v_202)) (or (or P44 P1) ?v_242)) (or (or ?v_239 ?v_59) ?v_110)) (or (or ?v_158 P6) ?v_18)) (or (or ?v_27 ?v_173) ?v_93)) (or (or ?v_237 P2) P26)) (or (or ?v_53 ?v_31) ?v_23)) (or (or ?v_24 P1) ?v_35)) (or (or ?v_226 ?v_106) ?v_21)) (or (or ?v_162 ?v_168) ?v_143)) (or (or ?v_45 ?v_253) ?v_239)) (or (or ?v_117 ?v_223) ?v_20)) (or (or P16 ?v_125) ?v_65)) (or (or ?v_190 ?v_193) P14)) (or (or P4 P2) ?v_71)) (or (or ?v_201 ?v_85) P38)) (or (or ?v_70 ?v_127) ?v_254)) (or (or ?v_28 P48) ?v_207)) (or (or ?v_0 ?v_117) ?v_187)) (or (or ?v_89 ?v_227) ?v_164)) (or (or ?v_193 ?v_250) ?v_61)) (or (or P2 P16) ?v_8)) (or (or ?v_204 P28) ?v_166)) (or (or ?v_80 P11) ?v_227)) (or (or ?v_195 ?v_82) ?v_172)) (or (or ?v_10 P20) ?v_188)) (or (or ?v_218 ?v_3) ?v_161)) (or (or P24 ?v_131) ?v_160)) (or (or ?v_219 ?v_13) ?v_137)) (or (or ?v_152 ?v_62) P29)) (or (or ?v_177 P40) ?v_117)) (or (or ?v_152 P33) ?v_147)) (or (or ?v_167 ?v_188) ?v_16)) (or (or ?v_203 ?v_18) ?v_255)) (or (or ?v_240 ?v_230) ?v_52)) (or (or ?v_242 ?v_52) ?v_58)) (or (or ?v_178 ?v_165) ?v_186)) (or (or ?v_140 ?v_199) ?v_160)) (or (or ?v_76 ?v_249) ?v_124)) (or (or ?v_115 ?v_190) P32)) (or (or P6 ?v_174) ?v_80)) (or (or ?v_127 ?v_151) ?v_205)) (or (or ?v_242 ?v_55) ?v_110)) (or (or ?v_199 ?v_215) ?v_38)) (or (or ?v_104 P16) ?v_16)) (or (or ?v_257 ?v_252) P47)) (or (or P34 ?v_86) ?v_34)) (or (or ?v_198 ?v_69) ?v_24)) (or (or P11 P41) P20)) (or (or ?v_185 ?v_94) ?v_34)) (or (or ?v_145 ?v_204) ?v_122)) (or (or ?v_45 P2) ?v_123)) (or (or ?v_25 ?v_195) P40)) (or (or ?v_172 ?v_207) ?v_26)) (or (or ?v_84 (not ?v_123)) ?v_174)) (or (or ?v_233 ?v_37) ?v_234)) (or (or ?v_228 P33) ?v_187)) (or (or ?v_56 ?v_202) ?v_150)) (or (or ?v_220 P19) ?v_249)) (or (or P36 ?v_210) ?v_244)) (or (or ?v_28 ?v_174) ?v_232)) (or (or ?v_77 ?v_76) ?v_256)) (or (or ?v_137 ?v_112) ?v_218)) (or (or ?v_251 P8) ?v_174)) (or (or ?v_123 ?v_217) ?v_231)) (or (or ?v_65 ?v_235) ?v_188)) (or (or ?v_71 ?v_222) ?v_243)) (or (or P11 ?v_25) ?v_170)) (or (or ?v_245 ?v_43) ?v_86)) (or (or ?v_71 ?v_188) ?v_77)) (or (or ?v_167 ?v_209) ?v_135)) (or (or ?v_27 ?v_149) P26)) (or (or ?v_242 ?v_194) P37)) (or (or ?v_16 ?v_197) ?v_95)) (or (or ?v_42 ?v_108) ?v_146)) (or (or ?v_242 ?v_28) ?v_50)) (or (or ?v_109 ?v_53) ?v_172)) (or (or ?v_80 ?v_19) ?v_9)) (or (or ?v_179 ?v_94) ?v_49)) (or (or ?v_21 ?v_124) ?v_32)) (or (or ?v_245 ?v_94) ?v_52)) (or (or ?v_56 ?v_108) ?v_38)) (or (or ?v_61 ?v_55) P8)) (or (or ?v_44 P35) ?v_11)) (or (or ?v_92 P3) ?v_129)) (or (or P46 ?v_165) P35)) (or (or ?v_75 ?v_70) ?v_32)) (or (or ?v_92 P19) ?v_208)) (or (or P30 ?v_245) ?v_207)) (or (or ?v_156 P17) ?v_198)) (or (or ?v_212 ?v_252) ?v_208)) (or (or P11 ?v_130) ?v_94)) (or (or ?v_71 ?v_144) ?v_184)) (or (or ?v_64 ?v_149) P5)) (or (or P45 ?v_31) ?v_83)) (or (or ?v_134 ?v_198) P42)) (or (or ?v_96 ?v_150) ?v_216)) (or (or P20 ?v_29) P27)) (or (or ?v_62 ?v_117) ?v_257)) (or (or ?v_235 ?v_37) ?v_227)) (or (or ?v_116 ?v_98) ?v_165)) (or (or ?v_92 ?v_175) ?v_125)) (or (or ?v_121 ?v_205) ?v_83)) (or (or P43 ?v_47) ?v_81)) (or (or ?v_168 ?v_140) ?v_39)) (or (or ?v_124 ?v_215) ?v_149)) (or (or ?v_186 ?v_41) ?v_43)) (or (or ?v_91 ?v_58) ?v_235)) (or (or ?v_40 ?v_154) ?v_258)) (or (or P37 ?v_230) ?v_200)) (or (or ?v_208 ?v_114) ?v_201)) (or (or ?v_153 ?v_174) ?v_79)) (or (or ?v_190 P11) ?v_124)) (or (or P19 ?v_225) P26)) (or (or ?v_157 P44) ?v_239)) (or (or ?v_195 ?v_39) ?v_74)) (or (or ?v_110 ?v_152) ?v_49)) (or (or ?v_52 ?v_202) ?v_190)) (or (or ?v_178 ?v_229) ?v_216)) (or (or P44 ?v_179) ?v_247)) (or (or ?v_239 ?v_258) ?v_236)) (or (or ?v_135 ?v_93) ?v_82)) (or (or ?v_159 ?v_95) ?v_26)) (or (or ?v_216 ?v_225) ?v_43)) (or (or P39 ?v_103) ?v_36)) (or (or ?v_178 P34) ?v_237)) (or (or ?v_244 ?v_173) P35)) (or (or ?v_46 ?v_9) ?v_70)) (or (or ?v_113 ?v_52) ?v_143)) (or (or ?v_71 ?v_199) ?v_149)) (or (or P13 ?v_200) ?v_165)) (or (or ?v_139 ?v_206) ?v_69)) (or (or ?v_27 ?v_109) ?v_155)) (or (or ?v_69 ?v_196) ?v_253)) (or (or ?v_160 ?v_151) P28)) (or (or ?v_227 ?v_182) ?v_199)) (or (or ?v_92 ?v_151) ?v_240)) (or (or ?v_211 ?v_239) ?v_192)) (or (or P31 P20) ?v_128)) (or (or ?v_234 ?v_78) ?v_21)) (or (or ?v_146 ?v_118) ?v_123)) (or (or ?v_239 ?v_27) ?v_154)) (or (or ?v_89 ?v_49) ?v_246)) (or (or ?v_149 ?v_105) ?v_201)) (or (or ?v_181 ?v_237) ?v_65)) (or (or ?v_216 ?v_85) ?v_63)) (or (or ?v_251 ?v_227) ?v_219)) (or (or P19 P20) ?v_161)) (or (or ?v_140 ?v_220) ?v_222)) (or (or ?v_64 ?v_81) ?v_182)) (or (or ?v_139 ?v_224) ?v_87)) (or (or ?v_142 ?v_195) ?v_136)) (or (or ?v_191 ?v_179) ?v_60)) (or (or P17 ?v_45) P2)) (or (or ?v_108 ?v_237) ?v_127)) (or (or ?v_111 ?v_215) ?v_184)) (or (or ?v_75 ?v_5) ?v_115)) (or (or ?v_208 ?v_72) ?v_71)) (or (or P12 P17) ?v_243)) (or (or P46 ?v_162) ?v_138)) (or (or ?v_60 ?v_141) ?v_177))))))))))))))))))))))))))))))))
(check-sat)
(exit)
